c " random instance " 
p edges 200 2131
e 1 23
e 1 26
e 1 35
e 1 41
e 1 46
e 1 58
e 1 79
e 1 85
e 1 94
e 1 95
e 1 119
e 1 120
e 1 165
e 1 176
e 1 177
e 1 180
e 1 193
e 2 16
e 2 27
e 2 39
e 2 51
e 2 73
e 2 80
e 2 81
e 2 95
e 2 100
e 2 107
e 2 109
e 2 119
e 2 141
e 2 143
e 2 167
e 2 170
e 2 173
e 2 186
e 2 194
e 3 14
e 3 22
e 3 29
e 3 30
e 3 38
e 3 40
e 3 60
e 3 79
e 3 89
e 3 97
e 3 101
e 3 114
e 3 147
e 3 163
e 3 168
e 3 197
e 4 13
e 4 15
e 4 35
e 4 43
e 4 46
e 4 60
e 4 64
e 4 76
e 4 79
e 4 81
e 4 97
e 4 108
e 4 114
e 4 115
e 4 116
e 4 126
e 4 141
e 4 150
e 4 153
e 4 160
e 4 168
e 5 6
e 5 11
e 5 13
e 5 27
e 5 40
e 5 44
e 5 49
e 5 64
e 5 75
e 5 99
e 5 106
e 5 114
e 5 120
e 5 127
e 5 133
e 5 136
e 5 140
e 5 141
e 5 142
e 5 156
e 5 159
e 5 163
e 5 169
e 5 174
e 5 175
e 5 180
e 5 182
e 5 184
e 5 185
e 5 186
e 5 197
e 6 22
e 6 26
e 6 37
e 6 41
e 6 51
e 6 67
e 6 70
e 6 79
e 6 96
e 6 100
e 6 145
e 6 159
e 6 161
e 6 189
e 6 194
e 7 12
e 7 41
e 7 56
e 7 69
e 7 70
e 7 90
e 7 106
e 7 113
e 7 131
e 7 151
e 7 156
e 7 158
e 7 159
e 7 167
e 7 176
e 7 180
e 7 181
e 7 192
e 7 195
e 8 24
e 8 37
e 8 41
e 8 55
e 8 60
e 8 67
e 8 69
e 8 83
e 8 93
e 8 96
e 8 111
e 8 113
e 8 126
e 8 133
e 8 138
e 8 150
e 8 164
e 8 165
e 8 173
e 8 183
e 8 191
e 8 193
e 8 197
e 9 23
e 9 30
e 9 47
e 9 56
e 9 63
e 9 78
e 9 91
e 9 102
e 9 104
e 9 115
e 9 140
e 9 142
e 9 147
e 9 150
e 9 157
e 9 160
e 9 176
e 9 189
e 9 192
e 9 195
e 10 22
e 10 34
e 10 37
e 10 38
e 10 50
e 10 76
e 10 83
e 10 93
e 10 101
e 10 103
e 10 151
e 10 164
e 10 191
e 10 198
e 11 12
e 11 19
e 11 22
e 11 47
e 11 58
e 11 61
e 11 83
e 11 104
e 11 108
e 11 116
e 11 153
e 11 167
e 11 169
e 11 170
e 11 172
e 12 34
e 12 38
e 12 39
e 12 44
e 12 66
e 12 84
e 12 96
e 12 110
e 12 117
e 12 120
e 12 123
e 12 142
e 12 156
e 12 174
e 12 177
e 12 183
e 13 25
e 13 31
e 13 52
e 13 54
e 13 69
e 13 82
e 13 90
e 13 94
e 13 99
e 13 103
e 13 113
e 13 137
e 13 146
e 13 148
e 13 156
e 13 161
e 13 167
e 13 172
e 13 177
e 13 185
e 13 190
e 13 191
e 13 194
e 13 196
e 13 199
e 14 16
e 14 21
e 14 30
e 14 54
e 14 59
e 14 97
e 14 98
e 14 105
e 14 108
e 14 117
e 14 127
e 14 130
e 14 134
e 14 163
e 14 164
e 14 165
e 14 173
e 14 192
e 15 18
e 15 19
e 15 28
e 15 31
e 15 53
e 15 72
e 15 73
e 15 86
e 15 111
e 15 130
e 15 132
e 15 133
e 15 136
e 15 163
e 15 172
e 15 182
e 15 183
e 15 184
e 16 19
e 16 23
e 16 27
e 16 33
e 16 39
e 16 46
e 16 48
e 16 52
e 16 56
e 16 63
e 16 91
e 16 92
e 16 102
e 16 103
e 16 108
e 16 110
e 16 119
e 16 165
e 16 174
e 16 175
e 16 183
e 16 187
e 17 25
e 17 37
e 17 39
e 17 51
e 17 59
e 17 62
e 17 67
e 17 71
e 17 87
e 17 91
e 17 123
e 17 141
e 17 145
e 17 146
e 17 149
e 17 158
e 17 159
e 17 185
e 17 196
e 18 19
e 18 22
e 18 33
e 18 39
e 18 41
e 18 43
e 18 45
e 18 46
e 18 57
e 18 62
e 18 65
e 18 74
e 18 88
e 18 99
e 18 106
e 18 114
e 18 123
e 18 124
e 18 137
e 18 154
e 18 155
e 18 159
e 18 167
e 18 179
e 18 180
e 18 193
e 19 31
e 19 35
e 19 44
e 19 56
e 19 64
e 19 71
e 19 80
e 19 94
e 19 110
e 19 117
e 19 129
e 19 138
e 19 142
e 19 178
e 19 187
e 19 200
e 20 24
e 20 30
e 20 48
e 20 57
e 20 79
e 20 84
e 20 88
e 20 99
e 20 114
e 20 139
e 20 151
e 20 178
e 20 183
e 20 199
e 20 200
e 21 38
e 21 53
e 21 57
e 21 84
e 21 97
e 21 101
e 21 108
e 21 112
e 21 115
e 21 117
e 21 126
e 21 135
e 21 146
e 21 149
e 21 152
e 21 164
e 21 200
e 22 23
e 22 27
e 22 35
e 22 46
e 22 48
e 22 63
e 22 67
e 22 93
e 22 100
e 22 104
e 22 123
e 22 131
e 22 136
e 22 141
e 22 144
e 22 155
e 22 160
e 22 165
e 22 169
e 22 174
e 22 181
e 22 182
e 22 183
e 22 193
e 22 194
e 22 195
e 23 24
e 23 25
e 23 37
e 23 39
e 23 58
e 23 93
e 23 104
e 23 115
e 23 125
e 23 130
e 23 137
e 23 141
e 23 150
e 23 151
e 23 153
e 23 160
e 23 161
e 23 163
e 23 164
e 23 166
e 23 183
e 24 47
e 24 73
e 24 114
e 24 115
e 24 124
e 24 170
e 24 173
e 24 185
e 25 27
e 25 33
e 25 54
e 25 55
e 25 60
e 25 84
e 25 89
e 25 90
e 25 92
e 25 99
e 25 102
e 25 110
e 25 120
e 25 123
e 25 126
e 25 127
e 25 140
e 25 158
e 25 165
e 25 176
e 25 190
e 26 30
e 26 33
e 26 38
e 26 44
e 26 47
e 26 56
e 26 60
e 26 72
e 26 88
e 26 106
e 26 117
e 26 119
e 26 129
e 26 137
e 26 159
e 26 164
e 27 42
e 27 71
e 27 72
e 27 76
e 27 79
e 27 86
e 27 90
e 27 91
e 27 98
e 27 109
e 27 115
e 27 117
e 27 119
e 27 128
e 27 138
e 27 155
e 27 162
e 27 165
e 27 174
e 27 176
e 27 193
e 28 30
e 28 32
e 28 55
e 28 62
e 28 64
e 28 68
e 28 71
e 28 76
e 28 78
e 28 82
e 28 104
e 28 112
e 28 129
e 28 135
e 28 168
e 28 173
e 28 179
e 28 192
e 29 31
e 29 44
e 29 45
e 29 52
e 29 58
e 29 62
e 29 68
e 29 75
e 29 103
e 29 106
e 29 117
e 29 125
e 29 129
e 29 141
e 29 151
e 29 154
e 29 156
e 29 161
e 29 165
e 29 166
e 29 173
e 29 177
e 29 193
e 30 46
e 30 47
e 30 58
e 30 60
e 30 72
e 30 73
e 30 76
e 30 78
e 30 80
e 30 109
e 30 136
e 30 139
e 30 147
e 30 153
e 30 170
e 30 186
e 30 189
e 30 192
e 31 35
e 31 38
e 31 44
e 31 54
e 31 57
e 31 95
e 31 100
e 31 111
e 31 112
e 31 113
e 31 115
e 31 116
e 31 119
e 31 129
e 31 132
e 31 133
e 31 138
e 31 150
e 31 176
e 31 177
e 31 198
e 32 37
e 32 41
e 32 46
e 32 51
e 32 55
e 32 73
e 32 89
e 32 92
e 32 97
e 32 119
e 32 121
e 32 131
e 32 137
e 32 139
e 32 141
e 32 162
e 32 172
e 32 180
e 32 193
e 33 40
e 33 43
e 33 47
e 33 50
e 33 59
e 33 64
e 33 85
e 33 86
e 33 124
e 33 125
e 33 129
e 33 144
e 33 173
e 33 178
e 34 41
e 34 54
e 34 66
e 34 70
e 34 71
e 34 85
e 34 86
e 34 100
e 34 110
e 34 117
e 34 119
e 34 124
e 34 126
e 34 129
e 34 134
e 34 135
e 34 138
e 34 154
e 34 155
e 34 171
e 34 178
e 34 179
e 35 103
e 35 116
e 35 117
e 35 131
e 35 147
e 35 151
e 35 153
e 35 162
e 35 165
e 35 167
e 35 174
e 35 200
e 36 44
e 36 51
e 36 57
e 36 62
e 36 63
e 36 64
e 36 81
e 36 85
e 36 91
e 36 92
e 36 96
e 36 105
e 36 124
e 36 128
e 36 129
e 36 138
e 36 155
e 36 156
e 36 186
e 37 46
e 37 85
e 37 99
e 37 109
e 37 115
e 37 135
e 37 143
e 37 147
e 37 150
e 37 151
e 37 153
e 37 158
e 37 161
e 37 179
e 37 189
e 38 40
e 38 43
e 38 62
e 38 92
e 38 96
e 38 97
e 38 107
e 38 111
e 38 113
e 38 128
e 38 129
e 38 131
e 38 138
e 38 163
e 38 167
e 38 170
e 38 190
e 38 195
e 38 199
e 39 40
e 39 50
e 39 62
e 39 65
e 39 71
e 39 88
e 39 94
e 39 102
e 39 103
e 39 117
e 39 123
e 39 125
e 39 142
e 39 145
e 39 150
e 39 153
e 39 158
e 39 170
e 39 172
e 39 177
e 39 198
e 40 53
e 40 71
e 40 91
e 40 92
e 40 99
e 40 102
e 40 105
e 40 106
e 40 119
e 40 129
e 40 137
e 40 139
e 40 148
e 40 154
e 40 155
e 40 163
e 40 181
e 40 185
e 41 44
e 41 53
e 41 59
e 41 65
e 41 67
e 41 78
e 41 83
e 41 120
e 41 124
e 41 127
e 41 144
e 41 145
e 41 146
e 41 151
e 42 68
e 42 73
e 42 77
e 42 88
e 42 98
e 42 104
e 42 111
e 42 112
e 42 114
e 42 115
e 42 135
e 42 144
e 42 150
e 42 152
e 42 155
e 42 180
e 42 193
e 43 52
e 43 63
e 43 69
e 43 71
e 43 72
e 43 89
e 43 114
e 43 123
e 43 125
e 43 127
e 43 135
e 43 136
e 43 137
e 43 138
e 43 141
e 43 166
e 43 174
e 43 177
e 43 182
e 43 197
e 44 50
e 44 70
e 44 95
e 44 109
e 44 110
e 44 118
e 44 123
e 44 126
e 44 141
e 44 148
e 44 149
e 44 160
e 44 166
e 44 173
e 44 177
e 44 184
e 44 185
e 44 186
e 44 188
e 44 192
e 44 197
e 45 72
e 45 84
e 45 85
e 45 132
e 45 133
e 45 138
e 45 156
e 45 167
e 45 177
e 46 52
e 46 53
e 46 54
e 46 83
e 46 84
e 46 94
e 46 120
e 46 141
e 46 167
e 46 182
e 46 185
e 46 186
e 46 188
e 46 193
e 46 194
e 47 71
e 47 84
e 47 89
e 47 92
e 47 107
e 47 118
e 47 123
e 47 131
e 47 138
e 47 144
e 47 152
e 47 171
e 47 174
e 47 180
e 47 182
e 47 190
e 47 198
e 48 54
e 48 63
e 48 66
e 48 91
e 48 95
e 48 97
e 48 98
e 48 106
e 48 107
e 48 132
e 48 166
e 48 168
e 48 174
e 48 184
e 48 199
e 49 52
e 49 71
e 49 89
e 49 95
e 49 96
e 49 112
e 49 114
e 49 115
e 49 118
e 49 125
e 49 131
e 49 135
e 49 141
e 49 151
e 49 168
e 49 171
e 49 176
e 50 51
e 50 73
e 50 74
e 50 80
e 50 95
e 50 99
e 50 122
e 50 131
e 50 134
e 50 135
e 50 157
e 50 159
e 50 162
e 50 165
e 50 172
e 50 178
e 50 180
e 50 181
e 50 189
e 50 197
e 50 199
e 51 61
e 51 62
e 51 86
e 51 101
e 51 108
e 51 113
e 51 114
e 51 125
e 51 134
e 51 143
e 51 161
e 51 179
e 51 182
e 51 188
e 52 53
e 52 61
e 52 71
e 52 78
e 52 98
e 52 116
e 52 130
e 52 139
e 52 161
e 52 195
e 52 198
e 53 64
e 53 77
e 53 95
e 53 96
e 53 117
e 53 120
e 53 131
e 53 134
e 53 138
e 53 142
e 53 155
e 53 167
e 53 168
e 53 186
e 53 190
e 53 200
e 54 57
e 54 111
e 54 113
e 54 135
e 54 171
e 54 196
e 54 198
e 54 199
e 54 200
e 55 71
e 55 81
e 55 85
e 55 94
e 55 116
e 55 121
e 55 123
e 55 141
e 55 146
e 55 147
e 55 159
e 55 174
e 55 182
e 56 66
e 56 85
e 56 117
e 56 124
e 56 129
e 56 137
e 56 141
e 56 155
e 56 165
e 56 187
e 56 195
e 57 76
e 57 84
e 57 97
e 57 106
e 57 110
e 57 121
e 57 122
e 57 124
e 57 135
e 57 160
e 57 181
e 57 183
e 57 192
e 57 198
e 57 200
e 58 67
e 58 87
e 58 92
e 58 94
e 58 108
e 58 114
e 58 116
e 58 127
e 58 138
e 58 151
e 58 152
e 58 160
e 58 179
e 58 196
e 59 61
e 59 68
e 59 102
e 59 119
e 59 125
e 59 131
e 59 139
e 59 140
e 59 143
e 59 152
e 59 163
e 59 164
e 59 184
e 60 63
e 60 64
e 60 69
e 60 73
e 60 77
e 60 86
e 60 104
e 60 118
e 60 127
e 60 131
e 60 132
e 60 135
e 60 146
e 60 155
e 60 190
e 61 63
e 61 68
e 61 72
e 61 82
e 61 86
e 61 94
e 61 102
e 61 103
e 61 107
e 61 116
e 61 123
e 61 130
e 61 143
e 61 148
e 61 150
e 61 163
e 61 166
e 61 178
e 61 185
e 61 189
e 61 193
e 61 196
e 61 197
e 61 198
e 62 63
e 62 66
e 62 69
e 62 74
e 62 89
e 62 93
e 62 101
e 62 102
e 62 104
e 62 109
e 62 110
e 62 112
e 62 126
e 62 135
e 62 138
e 62 152
e 62 159
e 62 169
e 62 188
e 62 191
e 62 192
e 63 73
e 63 80
e 63 81
e 63 85
e 63 91
e 63 94
e 63 97
e 63 111
e 63 129
e 63 171
e 63 178
e 63 181
e 63 186
e 64 71
e 64 73
e 64 81
e 64 97
e 64 158
e 64 160
e 64 162
e 64 167
e 64 189
e 64 190
e 64 194
e 64 195
e 65 74
e 65 84
e 65 129
e 65 136
e 65 137
e 65 153
e 65 155
e 65 163
e 65 180
e 65 182
e 65 190
e 65 193
e 65 197
e 66 68
e 66 76
e 66 83
e 66 88
e 66 99
e 66 100
e 66 103
e 66 112
e 66 114
e 66 121
e 66 147
e 66 150
e 66 160
e 66 161
e 66 171
e 66 175
e 66 180
e 66 197
e 67 71
e 67 91
e 67 96
e 67 98
e 67 119
e 67 138
e 67 141
e 67 142
e 67 144
e 67 156
e 67 180
e 67 181
e 67 182
e 67 190
e 67 191
e 67 193
e 67 195
e 68 99
e 68 107
e 68 119
e 68 146
e 68 190
e 69 72
e 69 82
e 69 85
e 69 90
e 69 93
e 69 95
e 69 110
e 69 115
e 69 143
e 69 154
e 69 165
e 69 166
e 69 178
e 69 181
e 69 185
e 70 82
e 70 100
e 70 108
e 70 120
e 70 123
e 70 124
e 70 130
e 70 131
e 70 132
e 70 142
e 70 145
e 70 149
e 70 152
e 70 155
e 70 156
e 70 167
e 70 174
e 70 175
e 70 176
e 70 180
e 70 190
e 70 192
e 71 76
e 71 81
e 71 83
e 71 114
e 71 122
e 71 143
e 71 148
e 71 156
e 71 157
e 71 173
e 71 189
e 71 197
e 72 73
e 72 83
e 72 93
e 72 102
e 72 106
e 72 107
e 72 109
e 72 114
e 72 116
e 72 121
e 72 126
e 72 130
e 72 144
e 72 164
e 72 166
e 72 171
e 72 183
e 73 79
e 73 91
e 73 120
e 73 121
e 73 147
e 73 149
e 73 155
e 73 167
e 73 187
e 73 191
e 74 76
e 74 115
e 74 121
e 74 126
e 74 138
e 74 142
e 74 176
e 74 177
e 74 191
e 75 76
e 75 79
e 75 101
e 75 116
e 75 137
e 75 157
e 75 175
e 75 181
e 76 90
e 76 94
e 76 103
e 76 113
e 76 135
e 76 140
e 76 164
e 76 177
e 76 189
e 76 193
e 77 91
e 77 93
e 77 95
e 77 101
e 77 123
e 77 125
e 77 169
e 77 175
e 77 176
e 77 191
e 78 80
e 78 91
e 78 100
e 78 107
e 78 108
e 78 111
e 78 112
e 78 127
e 78 131
e 78 135
e 78 139
e 78 147
e 78 165
e 78 166
e 78 183
e 78 185
e 78 198
e 79 80
e 79 94
e 79 98
e 79 110
e 79 126
e 79 134
e 79 136
e 79 154
e 79 166
e 79 188
e 80 84
e 80 95
e 80 116
e 80 122
e 80 134
e 80 143
e 80 172
e 80 179
e 80 189
e 80 195
e 80 199
e 81 87
e 81 94
e 81 101
e 81 102
e 81 112
e 81 124
e 81 132
e 81 133
e 81 141
e 81 145
e 81 148
e 81 160
e 81 166
e 81 170
e 81 180
e 81 184
e 81 187
e 81 191
e 81 194
e 81 197
e 81 198
e 82 85
e 82 92
e 82 104
e 82 107
e 82 129
e 82 158
e 82 160
e 82 166
e 82 187
e 82 193
e 83 88
e 83 111
e 83 112
e 83 128
e 83 130
e 83 137
e 83 144
e 83 156
e 83 172
e 83 183
e 83 189
e 83 196
e 84 85
e 84 88
e 84 102
e 84 123
e 84 136
e 84 139
e 84 145
e 84 152
e 84 158
e 84 159
e 84 167
e 84 168
e 84 180
e 84 184
e 84 185
e 84 195
e 84 198
e 85 92
e 85 126
e 85 128
e 85 133
e 85 134
e 85 136
e 85 143
e 85 164
e 85 185
e 85 193
e 85 195
e 85 199
e 86 105
e 86 110
e 86 114
e 86 117
e 86 122
e 86 133
e 86 139
e 86 147
e 86 150
e 86 151
e 86 160
e 86 163
e 86 170
e 86 179
e 86 187
e 86 193
e 86 198
e 87 89
e 87 92
e 87 99
e 87 100
e 87 101
e 87 106
e 87 113
e 87 128
e 87 130
e 87 135
e 87 147
e 87 150
e 87 151
e 87 172
e 87 180
e 87 193
e 87 195
e 88 90
e 88 93
e 88 115
e 88 123
e 88 128
e 88 134
e 88 135
e 88 137
e 88 143
e 88 156
e 88 178
e 88 190
e 88 192
e 89 92
e 89 93
e 89 95
e 89 96
e 89 97
e 89 99
e 89 115
e 89 119
e 89 121
e 89 126
e 89 128
e 89 131
e 89 154
e 89 172
e 89 177
e 89 180
e 89 192
e 89 196
e 90 123
e 90 124
e 90 137
e 90 139
e 90 144
e 90 161
e 90 166
e 90 167
e 90 185
e 90 186
e 90 187
e 90 189
e 90 200
e 91 94
e 91 95
e 91 101
e 91 115
e 91 117
e 91 131
e 91 134
e 91 135
e 91 163
e 91 180
e 92 113
e 92 134
e 92 150
e 92 165
e 92 192
e 93 108
e 93 174
e 94 110
e 94 112
e 94 119
e 94 123
e 94 132
e 94 137
e 94 141
e 94 158
e 94 173
e 94 192
e 94 195
e 95 96
e 95 98
e 95 137
e 95 138
e 95 156
e 95 157
e 95 183
e 95 186
e 96 102
e 96 103
e 96 104
e 96 111
e 96 113
e 96 115
e 96 126
e 96 140
e 96 145
e 96 150
e 96 172
e 96 188
e 96 190
e 96 191
e 97 98
e 97 101
e 97 118
e 97 130
e 97 141
e 97 150
e 97 154
e 97 155
e 97 162
e 97 173
e 97 193
e 97 199
e 98 101
e 98 125
e 98 126
e 98 137
e 98 144
e 98 145
e 98 158
e 98 172
e 98 178
e 98 188
e 99 108
e 99 112
e 99 120
e 99 123
e 99 131
e 99 136
e 99 140
e 99 144
e 99 152
e 99 153
e 99 158
e 99 160
e 99 169
e 99 171
e 99 181
e 100 108
e 100 109
e 100 110
e 100 119
e 100 126
e 100 141
e 100 157
e 100 166
e 100 168
e 100 185
e 100 194
e 100 197
e 100 200
e 101 119
e 101 124
e 101 127
e 101 135
e 101 136
e 101 142
e 101 151
e 101 152
e 101 160
e 101 165
e 101 168
e 101 175
e 101 176
e 101 186
e 101 192
e 101 199
e 102 116
e 102 122
e 102 132
e 102 133
e 102 147
e 102 149
e 102 154
e 102 160
e 102 199
e 103 105
e 103 109
e 103 112
e 103 119
e 103 132
e 103 133
e 103 166
e 103 168
e 103 175
e 103 179
e 103 189
e 103 191
e 103 193
e 103 198
e 104 107
e 104 110
e 104 114
e 104 116
e 104 133
e 104 148
e 104 160
e 104 161
e 104 178
e 104 185
e 105 109
e 105 111
e 105 126
e 105 143
e 105 151
e 105 153
e 105 154
e 105 191
e 105 194
e 106 121
e 106 122
e 106 127
e 106 134
e 106 144
e 106 146
e 106 154
e 106 158
e 106 172
e 106 180
e 106 198
e 106 200
e 107 114
e 107 123
e 107 125
e 107 150
e 107 153
e 107 161
e 107 170
e 107 171
e 107 172
e 107 182
e 107 189
e 107 191
e 108 120
e 108 126
e 108 128
e 108 138
e 108 142
e 108 161
e 108 166
e 108 172
e 108 175
e 108 181
e 109 114
e 109 119
e 109 120
e 109 125
e 109 130
e 109 141
e 109 149
e 109 150
e 109 153
e 109 154
e 109 160
e 109 162
e 109 165
e 109 189
e 109 194
e 110 129
e 110 150
e 110 154
e 110 157
e 110 164
e 110 166
e 110 178
e 110 191
e 111 113
e 111 120
e 111 124
e 111 127
e 111 134
e 111 137
e 111 143
e 111 151
e 111 155
e 111 161
e 111 165
e 111 173
e 111 174
e 111 183
e 111 190
e 111 198
e 111 199
e 111 200
e 112 121
e 112 122
e 112 125
e 112 133
e 112 170
e 112 182
e 112 183
e 112 184
e 112 189
e 113 126
e 113 177
e 113 199
e 114 116
e 114 130
e 114 139
e 114 147
e 114 150
e 114 158
e 114 160
e 114 171
e 114 172
e 114 174
e 114 178
e 114 192
e 114 193
e 114 194
e 114 196
e 115 116
e 115 131
e 115 136
e 115 154
e 115 155
e 115 166
e 115 186
e 115 190
e 116 118
e 116 133
e 116 134
e 116 175
e 116 192
e 117 119
e 117 121
e 117 125
e 117 177
e 117 189
e 117 198
e 118 119
e 118 140
e 118 145
e 118 157
e 118 159
e 118 168
e 118 181
e 119 122
e 119 128
e 119 150
e 119 153
e 119 165
e 119 182
e 119 190
e 119 193
e 120 124
e 120 133
e 120 141
e 120 143
e 120 160
e 120 187
e 120 189
e 120 195
e 121 125
e 121 126
e 121 128
e 121 138
e 121 154
e 121 161
e 121 162
e 121 174
e 121 178
e 121 186
e 121 196
e 122 136
e 122 144
e 122 148
e 122 161
e 122 162
e 122 168
e 122 170
e 122 192
e 122 193
e 123 135
e 123 137
e 123 138
e 123 140
e 123 152
e 123 157
e 123 180
e 123 193
e 124 146
e 124 152
e 124 173
e 124 180
e 124 186
e 124 199
e 125 135
e 125 138
e 125 140
e 125 148
e 125 157
e 125 175
e 125 185
e 125 186
e 125 190
e 125 191
e 125 196
e 126 150
e 126 153
e 126 165
e 126 175
e 126 189
e 127 128
e 127 152
e 128 142
e 128 146
e 128 148
e 128 151
e 128 152
e 128 157
e 128 169
e 128 175
e 128 177
e 128 183
e 128 185
e 128 196
e 129 133
e 129 136
e 129 140
e 129 149
e 129 152
e 129 167
e 129 170
e 129 183
e 129 195
e 129 196
e 130 135
e 130 145
e 130 152
e 130 158
e 130 163
e 130 174
e 130 179
e 130 195
e 131 140
e 131 156
e 131 161
e 131 173
e 131 175
e 131 177
e 131 187
e 131 189
e 132 137
e 132 142
e 132 143
e 132 147
e 132 165
e 132 179
e 132 183
e 133 166
e 133 182
e 133 198
e 134 142
e 134 151
e 134 156
e 134 160
e 134 161
e 134 165
e 134 174
e 134 178
e 134 187
e 134 194
e 135 138
e 135 141
e 135 144
e 135 150
e 135 155
e 135 169
e 135 171
e 135 173
e 135 179
e 135 182
e 135 183
e 135 193
e 135 196
e 135 197
e 136 156
e 136 170
e 136 171
e 136 179
e 137 138
e 137 149
e 137 150
e 137 156
e 137 158
e 137 180
e 137 181
e 137 196
e 138 149
e 138 151
e 138 153
e 138 155
e 138 159
e 138 161
e 138 173
e 138 174
e 139 155
e 139 158
e 139 173
e 139 178
e 139 181
e 139 195
e 140 143
e 140 144
e 140 150
e 140 171
e 140 174
e 140 178
e 140 179
e 140 187
e 140 190
e 141 154
e 141 166
e 141 179
e 141 181
e 141 200
e 142 152
e 142 155
e 142 164
e 142 165
e 142 166
e 142 169
e 142 171
e 142 190
e 143 147
e 143 151
e 143 158
e 143 162
e 143 168
e 143 171
e 143 174
e 143 179
e 143 191
e 143 192
e 143 193
e 143 196
e 144 151
e 144 154
e 144 161
e 144 163
e 144 167
e 144 170
e 144 174
e 144 190
e 145 156
e 145 179
e 146 162
e 146 166
e 146 170
e 146 172
e 147 159
e 147 165
e 147 192
e 147 196
e 148 164
e 148 174
e 149 151
e 149 154
e 149 160
e 149 161
e 149 169
e 149 178
e 149 191
e 150 156
e 150 157
e 150 161
e 150 163
e 150 164
e 150 172
e 150 176
e 150 180
e 150 192
e 150 199
e 151 153
e 151 164
e 151 187
e 151 192
e 152 162
e 152 179
e 152 198
e 153 159
e 153 161
e 153 165
e 153 167
e 153 183
e 153 190
e 153 197
e 154 164
e 154 167
e 154 174
e 154 190
e 154 192
e 154 200
e 155 165
e 155 167
e 155 171
e 155 172
e 155 174
e 155 183
e 156 157
e 156 167
e 156 169
e 156 183
e 156 186
e 157 158
e 157 178
e 157 179
e 157 188
e 158 160
e 158 196
e 159 161
e 159 164
e 159 166
e 159 177
e 160 172
e 160 193
e 160 196
e 161 174
e 161 176
e 161 179
e 161 187
e 161 198
e 161 200
e 162 165
e 162 166
e 162 169
e 162 180
e 162 189
e 162 197
e 162 199
e 163 177
e 164 166
e 164 171
e 164 175
e 164 180
e 164 193
e 164 197
e 164 200
e 165 176
e 166 195
e 166 196
e 166 197
e 167 173
e 167 179
e 167 193
e 168 183
e 168 188
e 168 192
e 169 177
e 169 180
e 169 184
e 169 185
e 169 200
e 170 186
e 170 188
e 170 190
e 170 195
e 171 185
e 171 193
e 171 196
e 171 199
e 172 184
e 172 185
e 172 188
e 172 190
e 172 194
e 172 199
e 173 180
e 173 195
e 173 196
e 174 176
e 175 184
e 175 199
e 176 186
e 177 187
e 178 181
e 178 182
e 178 188
e 178 197
e 179 183
e 179 185
e 180 185
e 180 186
e 180 197
e 181 188
e 181 190
e 182 191
e 183 198
e 183 200
e 184 197
e 185 190
e 185 193
e 185 197
e 186 190
e 186 194
e 186 199
e 187 189
e 188 193
e 188 196
e 189 200
e 190 194
e 192 193
e 192 197
e 193 198
e 194 200
e 195 198
